c
c start with comments
c
p cnf 28 14
7 10 14 -20 22 0
4 5 -29 6 0
-6 12 0
5 18 -19 -13 0
-20 -11 23 -18 -16 0
-23 29 29 0
1 1 -28 26 5 24 0
-12 -13 24 0
-10 -8 -10 -18 5 0
-27 -3 21 -16 -4 0
21 3 7 -25 -16 0
4 15 -5 0
-2 -30 -2 0
6 -13 11 0